Selected objective sense:  MINIMIZE
Selected objective  name:  OBJ
Selected RHS        name:  RHS1
Selected bound      name:  BND1
CPXPARAM_Preprocessing_Presolve                  0
CPXPARAM_LPMethod                                4
CPXPARAM_Threads                                 1
CPXPARAM_SolutionType                            2
CPXPARAM_TimeLimit                               3600
Tried aggregator 0 times.
Reduced presolve eliminated 75 rows and 75 columns.
Reduced LP has 973 rows, 3581 columns, and 79255 nonzeros.
Presolve time = 0.01 sec. (16.42 ticks)
Parallel mode: none, using 1 thread for barrier
Number of nonzeros in lower triangle of A*A' = 21898
Using Approximate Minimum Degree ordering
Total time for automatic ordering = 0.00 sec. (5.24 ticks)
Summary statistics for Cholesky factor:
  Rows in Factor            = 973
  Integer space required    = 22019
  Total non-zeros in factor = 23147
  Total FP ops to factor    = 566187
 Itn      Primal Obj        Dual Obj  Prim Inf Upper Inf  Dual Inf Inf Ratio
   0   7.4021215e+07  -2.9187695e+05  1.05e+07  0.00e+00  5.02e+04  1.00e+00
   1   8.4228334e+06  -7.0434671e+04  1.20e+06  8.27e-13  8.76e+03  1.24e-03
   2   9.9564725e+05  -3.1869826e+04  1.43e+05  7.07e-13  3.14e+03  3.03e-03
   3   1.3820067e+05  -2.1378669e+04  2.19e+04  5.83e-13  1.06e+03  9.02e-03
   4   1.6654967e+03  -6.4766341e+03  9.60e+02  1.61e-12  1.18e+02  1.13e-01
   5   1.5188178e+03   1.1547424e+03  1.30e+00  2.29e-12  5.39e+00  2.36e+00
   6   1.5053695e+03   1.3585262e+03  7.61e-01  2.27e-12  2.08e+00  1.03e+01
   7   1.4959787e+03   1.4385880e+03  4.13e-01  1.22e-12  7.59e-01  4.23e+01
   8   1.4869438e+03   1.4708160e+03  1.41e-01  1.53e-12  1.99e-01  1.82e+02
   9   1.4834102e+03   1.4753418e+03  7.98e-02  8.28e-13  8.64e-02  4.55e+02
  10   1.4820754e+03   1.4770380e+03  5.56e-02  1.20e-12  4.65e-02  8.40e+02
  11   1.4814490e+03   1.4779924e+03  4.39e-02  9.20e-13  2.49e-02  1.49e+03
  12   1.4812543e+03   1.4785969e+03  4.03e-02  7.20e-13  1.11e-02  2.84e+03
  13   1.4807387e+03   1.4786277e+03  3.11e-02  3.13e-12  1.02e-02  2.99e+03
  14   1.4806435e+03   1.4789143e+03  2.94e-02  2.77e-12  3.40e-03  5.99e+03
  15   1.4800765e+03   1.4790093e+03  1.85e-02  3.19e-12  1.78e-03  8.23e+03
  16   1.4799758e+03   1.4790687e+03  1.65e-02  4.00e-12  1.02e-03  1.06e+04
  17   1.4796864e+03   1.4790968e+03  1.07e-02  3.24e-12  6.80e-04  1.24e+04
  18   1.4795099e+03   1.4791453e+03  6.89e-03  3.22e-12  3.23e-04  1.90e+04
  19   1.4793244e+03   1.4791733e+03  2.62e-03  6.77e-13  1.85e-04  2.95e+04
  20   1.4792799e+03   1.4791949e+03  1.51e-03  8.55e-13  9.74e-05  5.36e+04
  21   1.4792512e+03   1.4792112e+03  7.98e-04  8.92e-13  3.19e-05  1.52e+05
  22   1.4792443e+03   1.4792129e+03  6.34e-04  9.90e-13  2.39e-05  1.95e+05
  23   1.4792269e+03   1.4792153e+03  2.13e-04  5.05e-13  1.28e-05  3.04e+05
  24   1.4792219e+03   1.4792177e+03  7.65e-05  9.23e-13  4.66e-06  8.37e+05
  25   1.4792199e+03   1.4792185e+03  2.23e-05  5.98e-13  1.88e-06  2.08e+06
  26   1.4792191e+03   1.4792190e+03  1.09e-07  6.47e-13  1.34e-07  2.94e+07
  27   1.4792191e+03   1.4792191e+03  3.42e-09  9.97e-13  8.95e-10  1.37e+10
Barrier time = 0.08 sec. (237.95 ticks)

Total time on 1 threads = 0.08 sec. (237.95 ticks)
Solve time: 0.085063236
Barrier iterations: 27
